NAME : X-n655-80-k105
COMMENT : "Generated by Queiroga, Frota, Sadykov, Subramanian, Uchoa and Vidal (2019)" 
TYPE : CVRP
DIMENSION : 655
EDGE_WEIGHT_TYPE : EUC_2D
CAPACITY : 5
NODE_COORD_SECTION
1 -1 500 500
2 0 346 793
3 0 692 966
4 0 171 666
5 0 287 795
6 0 133 668
7 0 704 959
8 0 400 795
9 0 195 897
10 0 845 931
11 0 829 724
12 0 300 860
13 0 218 829
14 0 116 780
15 0 237 631
16 0 126 681
17 0 825 922
18 0 315 913
19 0 271 769
20 0 530 917
21 0 156 900
22 0 265 808
23 0 171 742
24 0 388 776
25 0 153 664
26 0 393 855
27 0 320 751
28 0 594 862
29 0 213 810
30 0 723 924
31 0 192 877
32 0 661 910
33 0 153 729
34 0 334 812
35 0 558 944
36 0 502 783
37 0 266 747
38 0 23 753
39 0 180 584
40 0 702 854
41 0 354 649
42 0 412 709
43 0 721 928
44 0 168 674
45 0 364 640
46 0 375 727
47 0 247 977
48 0 332 853
49 0 664 929
50 0 646 901
51 0 248 723
52 0 116 628
53 0 123 690
54 0 247 539
55 0 715 966
56 0 314 712
57 0 237 747
58 0 202 679
59 0 409 946
60 0 684 879
61 0 142 576
62 0 204 636
63 0 440 817
64 0 697 882
65 0 772 977
66 0 177 889
67 0 341 787
68 0 391 725
69 0 82 764
70 0 734 834
71 0 352 732
72 0 646 553
73 0 102 631
74 0 354 612
75 0 374 865
76 0 421 812
77 0 335 835
78 0 646 931
79 0 560 910
80 0 702 965
81 0 273 790
82 0 329 750
83 0 300 586
84 0 850 855
85 0 235 683
86 0 393 953
87 0 389 923
88 0 341 851
89 0 781 946
90 0 329 862
91 0 472 873
92 0 356 895
93 0 194 733
94 0 53 777
95 0 133 596
96 0 606 971
97 0 273 812
98 0 223 812
99 0 156 820
100 0 317 650
101 0 177 790
102 0 389 747
103 0 663 944
104 0 336 940
105 0 284 739
106 0 737 977
107 0 249 956
108 0 433 852
109 0 294 856
110 0 285 879
111 0 280 818
112 0 175 885
113 0 295 747
114 0 669 902
115 0 763 969
116 0 138 632
117 0 193 593
118 0 220 818
119 0 145 800
120 0 739 960
121 0 72 672
122 0 752 940
123 0 639 894
124 0 329 726
125 0 799 987
126 0 118 343
127 0 660 917
128 0 382 741
129 0 242 626
130 0 164 824
131 0 350 881
132 0 509 886
133 0 190 416
134 0 72 656
135 0 353 659
136 0 132 677
137 0 364 771
138 0 893 900
139 0 140 645
140 0 411 757
141 0 397 805
142 0 171 644
143 0 488 625
144 0 260 816
145 0 764 980
146 0 149 657
147 0 769 855
148 0 716 925
149 0 191 843
150 0 566 966
151 0 620 908
152 0 358 727
153 0 268 705
154 0 406 927
155 0 139 943
156 0 192 762
157 0 549 931
158 0 177 664
159 0 433 707
160 0 301 753
161 0 361 840
162 0 120 764
163 0 178 664
164 0 109 751
165 0 318 529
166 0 419 952
167 0 309 737
168 0 289 787
169 0 350 812
170 0 88 794
171 0 151 658
172 0 185 883
173 0 411 467
174 0 603 872
175 0 342 708
176 0 317 747
177 0 579 988
178 0 329 555
179 0 361 731
180 0 37 706
181 0 394 558
182 0 154 745
183 0 324 703
184 0 370 912
185 0 727 900
186 0 150 702
187 0 383 694
188 0 151 679
189 0 149 654
190 0 144 638
191 0 269 635
192 0 212 842
193 0 217 644
194 0 250 597
195 0 835 953
196 0 620 949
197 0 324 910
198 0 344 793
199 0 176 922
200 0 370 746
201 0 204 682
202 0 262 830
203 0 328 484
204 0 385 931
205 0 706 957
206 0 201 655
207 0 300 737
208 0 379 791
209 0 728 720
210 0 296 858
211 0 154 613
212 0 663 942
213 0 135 908
214 0 805 910
215 0 646 872
216 0 113 692
217 0 349 554
218 0 290 737
219 0 430 668
220 0 588 977
221 0 236 656
222 0 370 871
223 0 286 727
224 0 89 671
225 0 136 667
226 0 195 761
227 0 188 705
228 0 377 846
229 0 375 728
230 0 269 763
231 0 235 694
232 0 452 826
233 0 281 909
234 0 215 585
235 0 325 707
236 0 419 817
237 0 392 704
238 0 152 544
239 0 136 580
240 0 643 996
241 0 198 731
242 0 155 556
243 0 345 859
244 0 99 666
245 0 519 722
246 0 168 757
247 0 295 824
248 0 676 800
249 0 229 686
250 0 772 941
251 0 294 729
252 0 637 926
253 0 464 795
254 0 346 681
255 0 327 758
256 0 665 965
257 0 98 690
258 0 852 860
259 0 770 889
260 0 124 598
261 0 235 831
262 0 680 969
263 0 323 800
264 0 525 931
265 0 120 772
266 0 839 978
267 0 214 652
268 0 660 965
269 0 297 626
270 0 236 738
271 0 148 850
272 0 138 699
273 0 336 773
274 0 605 738
275 0 190 648
276 0 119 620
277 0 198 853
278 0 288 514
279 0 888 888
280 0 165 542
281 0 682 934
282 0 794 844
283 0 759 985
284 0 416 819
285 0 724 966
286 0 403 812
287 0 270 789
288 0 482 818
289 0 69 537
290 0 734 946
291 0 292 679
292 0 346 556
293 0 644 943
294 0 681 943
295 0 323 765
296 0 514 782
297 0 141 713
298 0 624 870
299 0 625 952
300 0 356 923
301 0 356 576
302 0 328 801
303 0 185 648
304 0 287 633
305 0 689 956
306 0 645 958
307 0 137 895
308 0 299 975
309 0 448 752
310 0 348 642
311 0 151 631
312 0 675 910
313 0 245 776
314 0 434 705
315 0 283 804
316 0 889 924
317 0 187 781
318 0 486 662
319 0 350 844
320 0 519 720
321 0 720 924
322 0 259 800
323 0 514 712
324 0 443 521
325 0 421 818
326 0 174 765
327 0 750 969
328 0 481 831
329 0 281 600
330 0 141 959
331 0 299 730
332 0 320 840
333 0 341 651
334 0 365 730
335 0 789 953
336 0 680 906
337 0 145 740
338 0 304 810
339 0 290 741
340 0 467 973
341 0 600 980
342 0 288 613
343 0 309 761
344 0 153 907
345 0 307 834
346 0 335 809
347 0 989 940
348 0 176 655
349 0 759 975
350 0 345 821
351 0 658 971
352 0 749 841
353 0 380 754
354 0 316 640
355 0 177 803
356 0 133 650
357 0 254 803
358 0 311 838
359 0 293 782
360 0 493 855
361 0 704 715
362 0 102 745
363 0 226 806
364 0 147 600
365 0 437 837
366 0 262 671
367 0 152 706
368 0 310 738
369 0 146 594
370 0 864 905
371 0 271 792
372 0 317 845
373 0 607 724
374 0 407 563
375 0 469 986
376 0 693 918
377 0 235 641
378 0 405 833
379 0 617 890
380 0 508 893
381 0 361 822
382 0 712 984
383 0 577 895
384 0 225 550
385 0 171 397
386 0 391 780
387 0 418 845
388 0 155 768
389 0 135 553
390 0 381 894
391 0 383 713
392 0 631 842
393 0 313 899
394 0 777 738
395 0 289 831
396 0 699 923
397 0 323 706
398 0 309 774
399 0 232 689
400 0 232 654
401 0 540 966
402 0 373 830
403 0 137 742
404 0 205 693
405 0 178 829
406 0 203 663
407 0 354 767
408 0 212 657
409 0 370 890
410 0 300 820
411 0 142 643
412 0 274 816
413 0 358 665
414 0 330 387
415 0 152 815
416 0 522 768
417 0 232 688
418 0 179 630
419 0 359 620
420 0 276 725
421 0 269 741
422 0 300 881
423 0 234 495
424 0 848 971
425 0 141 576
426 0 158 722
427 0 140 687
428 0 293 767
429 0 250 870
430 0 571 769
431 0 162 708
432 0 236 891
433 0 142 766
434 0 470 860
435 0 409 941
436 0 293 643
437 0 219 907
438 0 438 500
439 0 381 689
440 0 186 778
441 0 298 706
442 0 149 681
443 0 745 731
444 0 314 700
445 0 252 792
446 0 218 889
447 0 286 867
448 0 331 662
449 0 817 976
450 0 210 767
451 0 60 635
452 0 290 814
453 0 356 864
454 0 377 751
455 0 759 947
456 0 209 914
457 0 348 823
458 0 600 940
459 0 283 741
460 0 219 943
461 0 334 754
462 0 146 701
463 0 245 914
464 0 333 697
465 0 700 975
466 0 354 815
467 0 281 903
468 0 393 876
469 0 313 794
470 0 116 629
471 0 350 746
472 0 457 836
473 0 360 833
474 0 723 793
475 0 322 922
476 0 373 835
477 0 182 725
478 0 612 984
479 0 276 788
480 0 337 871
481 0 157 712
482 0 180 718
483 0 110 751
484 0 478 864
485 0 198 713
486 0 97 782
487 0 245 799
488 0 366 753
489 0 705 860
490 0 251 740
491 0 331 736
492 0 678 955
493 0 357 819
494 0 170 770
495 0 310 710
496 0 138 651
497 0 157 698
498 0 299 520
499 0 253 784
500 0 314 735
501 0 238 903
502 0 753 794
503 0 116 779
504 0 25 788
505 0 115 837
506 0 191 605
507 0 39 803
508 0 269 809
509 0 333 845
510 0 103 581
511 0 390 849
512 0 678 973
513 0 368 739
514 0 218 733
515 0 698 973
516 0 742 935
517 0 338 814
518 0 272 632
519 0 96 621
520 0 200 778
521 0 741 911
522 0 728 990
523 0 374 755
524 0 628 922
525 0 713 842
526 1 426 574
527 1 243 643
528 1 736 891
529 1 379 850
530 1 348 845
531 1 370 701
532 1 281 761
533 1 121 730
534 1 189 703
535 1 405 747
536 1 722 827
537 1 380 638
538 1 192 679
539 1 323 680
540 1 194 723
541 1 675 994
542 1 391 872
543 1 754 984
544 1 319 838
545 1 289 917
546 1 466 764
547 1 409 807
548 1 302 908
549 1 140 817
550 1 303 803
551 1 479 913
552 1 42 548
553 1 349 834
554 1 702 995
555 1 686 901
556 1 379 698
557 1 659 924
558 1 362 867
559 1 290 701
560 1 157 702
561 1 289 978
562 1 239 744
563 1 312 820
564 1 742 986
565 1 195 565
566 1 339 789
567 1 191 700
568 1 341 972
569 1 259 794
570 1 200 725
571 1 219 685
572 1 378 793
573 1 329 846
574 1 326 617
575 1 640 793
576 1 317 866
577 1 279 817
578 1 942 960
579 1 369 728
580 1 688 978
581 1 190 881
582 1 136 608
583 1 184 611
584 1 85 689
585 1 507 533
586 1 326 860
587 1 279 803
588 1 688 984
589 1 653 911
590 1 360 747
591 1 319 744
592 1 390 741
593 1 252 873
594 1 657 981
595 1 104 721
596 1 363 911
597 1 154 695
598 1 667 910
599 1 185 714
600 1 896 805
601 1 73 709
602 1 324 725
603 1 258 810
604 1 233 734
605 1 794 896
606 1 267 664
607 1 84 667
608 1 692 953
609 1 299 858
610 1 193 780
611 1 647 844
612 1 427 680
613 1 227 914
614 1 57 738
615 1 708 994
616 1 249 792
617 1 283 655
618 1 146 694
619 1 263 686
620 1 105 706
621 1 241 837
622 1 312 704
623 1 199 748
624 1 370 882
625 1 227 644
626 1 331 670
627 1 295 836
628 1 59 723
629 1 201 647
630 1 662 737
631 1 249 655
632 1 183 835
633 1 343 587
634 1 285 816
635 1 770 930
636 1 354 804
637 1 331 901
638 1 817 995
639 1 172 670
640 1 397 950
641 1 317 783
642 1 391 900
643 1 309 797
644 1 324 959
645 1 437 695
646 1 77 613
647 1 361 894
648 1 721 986
649 1 272 770
650 1 688 871
651 1 708 917
652 1 380 847
653 1 359 931
654 1 83 847
655 1 185 712
DEMAND_SECTION
1 0
2 1
3 1
4 1
5 1
6 1
7 1
8 1
9 1
10 1
11 1
12 1
13 1
14 1
15 1
16 1
17 1
18 1
19 1
20 1
21 1
22 1
23 1
24 1
25 1
26 1
27 1
28 1
29 1
30 1
31 1
32 1
33 1
34 1
35 1
36 1
37 1
38 1
39 1
40 1
41 1
42 1
43 1
44 1
45 1
46 1
47 1
48 1
49 1
50 1
51 1
52 1
53 1
54 1
55 1
56 1
57 1
58 1
59 1
60 1
61 1
62 1
63 1
64 1
65 1
66 1
67 1
68 1
69 1
70 1
71 1
72 1
73 1
74 1
75 1
76 1
77 1
78 1
79 1
80 1
81 1
82 1
83 1
84 1
85 1
86 1
87 1
88 1
89 1
90 1
91 1
92 1
93 1
94 1
95 1
96 1
97 1
98 1
99 1
100 1
101 1
102 1
103 1
104 1
105 1
106 1
107 1
108 1
109 1
110 1
111 1
112 1
113 1
114 1
115 1
116 1
117 1
118 1
119 1
120 1
121 1
122 1
123 1
124 1
125 1
126 1
127 1
128 1
129 1
130 1
131 1
132 1
133 1
134 1
135 1
136 1
137 1
138 1
139 1
140 1
141 1
142 1
143 1
144 1
145 1
146 1
147 1
148 1
149 1
150 1
151 1
152 1
153 1
154 1
155 1
156 1
157 1
158 1
159 1
160 1
161 1
162 1
163 1
164 1
165 1
166 1
167 1
168 1
169 1
170 1
171 1
172 1
173 1
174 1
175 1
176 1
177 1
178 1
179 1
180 1
181 1
182 1
183 1
184 1
185 1
186 1
187 1
188 1
189 1
190 1
191 1
192 1
193 1
194 1
195 1
196 1
197 1
198 1
199 1
200 1
201 1
202 1
203 1
204 1
205 1
206 1
207 1
208 1
209 1
210 1
211 1
212 1
213 1
214 1
215 1
216 1
217 1
218 1
219 1
220 1
221 1
222 1
223 1
224 1
225 1
226 1
227 1
228 1
229 1
230 1
231 1
232 1
233 1
234 1
235 1
236 1
237 1
238 1
239 1
240 1
241 1
242 1
243 1
244 1
245 1
246 1
247 1
248 1
249 1
250 1
251 1
252 1
253 1
254 1
255 1
256 1
257 1
258 1
259 1
260 1
261 1
262 1
263 1
264 1
265 1
266 1
267 1
268 1
269 1
270 1
271 1
272 1
273 1
274 1
275 1
276 1
277 1
278 1
279 1
280 1
281 1
282 1
283 1
284 1
285 1
286 1
287 1
288 1
289 1
290 1
291 1
292 1
293 1
294 1
295 1
296 1
297 1
298 1
299 1
300 1
301 1
302 1
303 1
304 1
305 1
306 1
307 1
308 1
309 1
310 1
311 1
312 1
313 1
314 1
315 1
316 1
317 1
318 1
319 1
320 1
321 1
322 1
323 1
324 1
325 1
326 1
327 1
328 1
329 1
330 1
331 1
332 1
333 1
334 1
335 1
336 1
337 1
338 1
339 1
340 1
341 1
342 1
343 1
344 1
345 1
346 1
347 1
348 1
349 1
350 1
351 1
352 1
353 1
354 1
355 1
356 1
357 1
358 1
359 1
360 1
361 1
362 1
363 1
364 1
365 1
366 1
367 1
368 1
369 1
370 1
371 1
372 1
373 1
374 1
375 1
376 1
377 1
378 1
379 1
380 1
381 1
382 1
383 1
384 1
385 1
386 1
387 1
388 1
389 1
390 1
391 1
392 1
393 1
394 1
395 1
396 1
397 1
398 1
399 1
400 1
401 1
402 1
403 1
404 1
405 1
406 1
407 1
408 1
409 1
410 1
411 1
412 1
413 1
414 1
415 1
416 1
417 1
418 1
419 1
420 1
421 1
422 1
423 1
424 1
425 1
426 1
427 1
428 1
429 1
430 1
431 1
432 1
433 1
434 1
435 1
436 1
437 1
438 1
439 1
440 1
441 1
442 1
443 1
444 1
445 1
446 1
447 1
448 1
449 1
450 1
451 1
452 1
453 1
454 1
455 1
456 1
457 1
458 1
459 1
460 1
461 1
462 1
463 1
464 1
465 1
466 1
467 1
468 1
469 1
470 1
471 1
472 1
473 1
474 1
475 1
476 1
477 1
478 1
479 1
480 1
481 1
482 1
483 1
484 1
485 1
486 1
487 1
488 1
489 1
490 1
491 1
492 1
493 1
494 1
495 1
496 1
497 1
498 1
499 1
500 1
501 1
502 1
503 1
504 1
505 1
506 1
507 1
508 1
509 1
510 1
511 1
512 1
513 1
514 1
515 1
516 1
517 1
518 1
519 1
520 1
521 1
522 1
523 1
524 1
525 1
526 1
527 1
528 1
529 1
530 1
531 1
532 1
533 1
534 1
535 1
536 1
537 1
538 1
539 1
540 1
541 1
542 1
543 1
544 1
545 1
546 1
547 1
548 1
549 1
550 1
551 1
552 1
553 1
554 1
555 1
556 1
557 1
558 1
559 1
560 1
561 1
562 1
563 1
564 1
565 1
566 1
567 1
568 1
569 1
570 1
571 1
572 1
573 1
574 1
575 1
576 1
577 1
578 1
579 1
580 1
581 1
582 1
583 1
584 1
585 1
586 1
587 1
588 1
589 1
590 1
591 1
592 1
593 1
594 1
595 1
596 1
597 1
598 1
599 1
600 1
601 1
602 1
603 1
604 1
605 1
606 1
607 1
608 1
609 1
610 1
611 1
612 1
613 1
614 1
615 1
616 1
617 1
618 1
619 1
620 1
621 1
622 1
623 1
624 1
625 1
626 1
627 1
628 1
629 1
630 1
631 1
632 1
633 1
634 1
635 1
636 1
637 1
638 1
639 1
640 1
641 1
642 1
643 1
644 1
645 1
646 1
647 1
648 1
649 1
650 1
651 1
652 1
653 1
654 1
655 1
DEPOT_SECTION
1
-1
EOF
